
  22    4
  10   10   10   10

   0   0   0   0   0   8 2 3 5 6 7 8 14 21 
  10  10  10  10  10   4 20 10 9 4 
   9  10  10  10  10   5 19 18 17 16 13 
  10  10  10  10  10   4 18 17 12 11 
   2  10  10  10  10   3 19 18 10 
   6  10  10  10  10   3 18 13 11 
   4  10  10  10  10   3 17 13 11 
   3  10  10  10  10   3 17 13 11 
   3  10  10  10  10   3 18 16 13 
   5  10  10  10  10   2 16 13 
   1  10  10  10  10   2 16 15 
   2  10  10  10  10   2 16 15 
   3  10  10  10  10   1 15 
   4  10  10  10  10   1 17 
   7  10  10  10  10   1 22
   2  10  10  10  10   1 22
   3  10  10  10  10   1 22
   5  10  10  10  10   1 22
   4  10  10  10  10   1 22
   8  10  10  10  10   1 22
   5  10  10  10  10   1 22
   0   0   0   0   0   0 
